autoGR kpoint generation:   332 (irred),      3600 (total),  10.84 (folding), 0.0922 (ratio)
         332
 Fractional
 0.000000000000  0.000000000000  0.000000000000     1
 0.016666666667 -0.033333333333  0.000000000000     6
 0.033333333333 -0.066666666667  0.000000000000     6
 0.050000000000 -0.100000000000  0.000000000000     6
 0.066666666667 -0.133333333333  0.000000000000     6
 0.083333333333 -0.166666666667  0.000000000000     6
 0.100000000000 -0.200000000000 -0.000000000000     6
 0.116666666667 -0.233333333333  0.000000000000     6
 0.133333333333 -0.266666666667 -0.000000000000     6
 0.150000000000 -0.300000000000  0.000000000000     6
 0.166666666667 -0.333333333333  0.000000000000     6
 0.183333333333 -0.366666666667 -0.000000000000     6
 0.200000000000 -0.400000000000  0.000000000000     6
 0.216666666667 -0.433333333333  0.000000000000     6
 0.233333333333 -0.466666666667  0.000000000000     6
 0.250000000000 -0.500000000000  0.000000000000     6
 0.266666666667 -0.533333333333  0.000000000000     6
 0.283333333333 -0.566666666667  0.000000000000     6
 0.300000000000 -0.600000000000  0.000000000000     6
 0.316666666667 -0.633333333333  0.000000000000     6
 0.333333333333  0.333333333333  0.000000000000     2
 0.350000000000  0.300000000000  0.000000000000     6
 0.366666666667  0.266666666667  0.000000000000     6
 0.383333333333  0.233333333333  0.000000000000     6
 0.400000000000  0.200000000000  0.000000000000     6
 0.416666666667  0.166666666667  0.000000000000     6
 0.433333333333  0.133333333333  0.000000000000     6
 0.450000000000  0.100000000000  0.000000000000     6
 0.466666666667  0.066666666667  0.000000000000     6
 0.483333333333  0.033333333333  0.000000000000     6
 0.500000000000 -0.000000000000  0.000000000000     3
 0.000000000000  0.000000000000  0.333333333333     2
 0.016666666667 -0.033333333333  0.333333333333    12
 0.033333333333 -0.066666666667  0.333333333333    12
 0.050000000000 -0.100000000000  0.333333333333    12
 0.066666666667 -0.133333333333  0.333333333333    12
 0.083333333333 -0.166666666667  0.333333333333    12
 0.100000000000 -0.200000000000  0.333333333333    12
 0.116666666667 -0.233333333333  0.333333333333    12
 0.133333333333 -0.266666666667  0.333333333333    12
 0.150000000000 -0.300000000000  0.333333333333    12
 0.166666666667 -0.333333333333  0.333333333333    12
 0.183333333333 -0.366666666667  0.333333333333    12
 0.200000000000 -0.400000000000  0.333333333333    12
 0.216666666667 -0.433333333333  0.333333333333    12
 0.233333333333 -0.466666666667  0.333333333333    12
 0.250000000000 -0.500000000000  0.333333333333    12
 0.266666666667 -0.533333333333  0.333333333333    12
 0.283333333333 -0.566666666667  0.333333333333    12
 0.300000000000 -0.600000000000  0.333333333333    12
 0.316666666667 -0.633333333333  0.333333333333    12
 0.333333333333  0.333333333333  0.333333333333     4
 0.350000000000  0.300000000000  0.333333333333    12
 0.366666666667  0.266666666667  0.333333333333    12
 0.383333333333  0.233333333333  0.333333333333    12
 0.400000000000  0.200000000000  0.333333333333    12
 0.416666666667  0.166666666667  0.333333333333    12
 0.433333333333  0.133333333333  0.333333333333    12
 0.450000000000  0.100000000000  0.333333333333    12
 0.466666666667  0.066666666667  0.333333333333    12
 0.483333333333  0.033333333333  0.333333333333    12
 0.500000000000 -0.000000000000  0.333333333333     6
 0.050000000000 -0.050000000000  0.000000000000     6
 0.066666666667 -0.083333333333 -0.000000000000    12
 0.083333333333 -0.116666666667  0.000000000000    12
 0.100000000000 -0.150000000000 -0.000000000000    12
 0.116666666667 -0.183333333333 -0.000000000000    12
 0.133333333333 -0.216666666667  0.000000000000    12
 0.150000000000 -0.250000000000 -0.000000000000    12
 0.166666666667 -0.283333333333  0.000000000000    12
 0.183333333333 -0.316666666667 -0.000000000000    12
 0.200000000000 -0.350000000000 -0.000000000000    12
 0.216666666667 -0.383333333333 -0.000000000000    12
 0.233333333333 -0.416666666667  0.000000000000    12
 0.250000000000 -0.450000000000 -0.000000000000    12
 0.266666666667 -0.483333333333  0.000000000000    12
 0.283333333333 -0.516666666667 -0.000000000000    12
 0.300000000000 -0.550000000000 -0.000000000000    12
 0.316666666667 -0.583333333333 -0.000000000000    12
 0.333333333333 -0.616666666667 -0.000000000000    12
-0.600000000000  0.250000000000  0.000000000000    12
-0.583333333333  0.216666666667 -0.000000000000    12
-0.566666666667  0.183333333333 -0.000000000000    12
-0.550000000000  0.150000000000 -0.000000000000    12
-0.533333333333  0.116666666667  0.000000000000    12
-0.516666666667  0.083333333333  0.000000000000    12
-0.500000000000  0.050000000000 -0.000000000000    12
-0.483333333333  0.016666666667  0.000000000000    12
 0.050000000000 -0.050000000000  0.333333333333     6
 0.066666666667 -0.083333333333  0.333333333333    12
 0.083333333333 -0.116666666667  0.333333333333    12
 0.100000000000 -0.150000000000  0.333333333333    12
 0.116666666667 -0.183333333333  0.333333333333    12
 0.133333333333 -0.216666666667  0.333333333333    12
 0.150000000000 -0.250000000000  0.333333333333    12
 0.166666666667 -0.283333333333  0.333333333333    12
 0.183333333333 -0.316666666667  0.333333333333    12
 0.200000000000 -0.350000000000  0.333333333333    12
 0.216666666667 -0.383333333333  0.333333333333    12
 0.233333333333 -0.416666666667  0.333333333333    12
 0.250000000000 -0.450000000000  0.333333333333    12
 0.266666666667 -0.483333333333  0.333333333333    12
 0.283333333333 -0.516666666667  0.333333333333    12
 0.300000000000 -0.550000000000  0.333333333333    12
 0.316666666667 -0.583333333333  0.333333333333    12
 0.333333333333 -0.616666666667  0.333333333333    12
-0.600000000000  0.250000000000  0.333333333333    12
-0.583333333333  0.216666666667  0.333333333333    12
-0.566666666667  0.183333333333  0.333333333333    12
-0.550000000000  0.150000000000  0.333333333333    12
-0.533333333333  0.116666666667  0.333333333333    12
-0.516666666667  0.083333333333  0.333333333333    12
-0.500000000000  0.050000000000  0.333333333333    12
-0.483333333333  0.016666666667  0.333333333333    12
 0.050000000000 -0.050000000000 -0.333333333333     6
 0.066666666667 -0.083333333333 -0.333333333333    12
 0.083333333333 -0.116666666667 -0.333333333333    12
 0.100000000000 -0.150000000000 -0.333333333333    12
 0.116666666667 -0.183333333333 -0.333333333333    12
 0.133333333333 -0.216666666667 -0.333333333333    12
 0.150000000000 -0.250000000000 -0.333333333333    12
 0.166666666667 -0.283333333333 -0.333333333333    12
 0.183333333333 -0.316666666667 -0.333333333333    12
 0.200000000000 -0.350000000000 -0.333333333333    12
 0.216666666667 -0.383333333333 -0.333333333333    12
 0.233333333333 -0.416666666667 -0.333333333333    12
 0.250000000000 -0.450000000000 -0.333333333333    12
 0.266666666667 -0.483333333333 -0.333333333333    12
 0.283333333333 -0.516666666667 -0.333333333333    12
 0.300000000000 -0.550000000000 -0.333333333333    12
 0.316666666667 -0.583333333333 -0.333333333333    12
 0.333333333333 -0.616666666667 -0.333333333333    12
-0.600000000000  0.250000000000 -0.333333333333    12
-0.583333333333  0.216666666667 -0.333333333333    12
-0.566666666667  0.183333333333 -0.333333333333    12
-0.550000000000  0.150000000000 -0.333333333333    12
-0.533333333333  0.116666666667 -0.333333333333    12
-0.516666666667  0.083333333333 -0.333333333333    12
-0.500000000000  0.050000000000 -0.333333333333    12
-0.483333333333  0.016666666667 -0.333333333333    12
 0.100000000000 -0.100000000000 -0.000000000000     6
 0.116666666667 -0.133333333333 -0.000000000000    12
 0.133333333333 -0.166666666667 -0.000000000000    12
 0.150000000000 -0.200000000000  0.000000000000    12
 0.166666666667 -0.233333333333  0.000000000000    12
 0.183333333333 -0.266666666667  0.000000000000    12
 0.200000000000 -0.300000000000 -0.000000000000    12
 0.216666666667 -0.333333333333  0.000000000000    12
 0.233333333333 -0.366666666667 -0.000000000000    12
 0.250000000000 -0.400000000000  0.000000000000    12
 0.266666666667 -0.433333333333  0.000000000000    12
 0.283333333333 -0.466666666667  0.000000000000    12
 0.300000000000 -0.500000000000 -0.000000000000    12
 0.316666666667 -0.533333333333  0.000000000000    12
 0.333333333333 -0.566666666667  0.000000000000    12
-0.550000000000  0.200000000000  0.000000000000    12
-0.533333333333  0.166666666667 -0.000000000000    12
-0.516666666667  0.133333333333 -0.000000000000    12
-0.500000000000  0.100000000000  0.000000000000    12
-0.483333333333  0.066666666667 -0.000000000000    12
-0.466666666667  0.033333333333  0.000000000000    12
-0.450000000000  0.000000000000  0.000000000000     6
 0.100000000000 -0.100000000000  0.333333333333     6
 0.116666666667 -0.133333333333  0.333333333333    12
 0.133333333333 -0.166666666667  0.333333333333    12
 0.150000000000 -0.200000000000  0.333333333333    12
 0.166666666667 -0.233333333333  0.333333333333    12
 0.183333333333 -0.266666666667  0.333333333333    12
 0.200000000000 -0.300000000000  0.333333333333    12
 0.216666666667 -0.333333333333  0.333333333333    12
 0.233333333333 -0.366666666667  0.333333333333    12
 0.250000000000 -0.400000000000  0.333333333333    12
 0.266666666667 -0.433333333333  0.333333333333    12
 0.283333333333 -0.466666666667  0.333333333333    12
 0.300000000000 -0.500000000000  0.333333333333    12
 0.316666666667 -0.533333333333  0.333333333333    12
 0.333333333333 -0.566666666667  0.333333333333    12
-0.550000000000  0.200000000000  0.333333333333    12
-0.533333333333  0.166666666667  0.333333333333    12
-0.516666666667  0.133333333333  0.333333333333    12
-0.500000000000  0.100000000000  0.333333333333    12
-0.483333333333  0.066666666667  0.333333333333    12
-0.466666666667  0.033333333333  0.333333333333    12
-0.450000000000  0.000000000000  0.333333333333     6
 0.100000000000 -0.100000000000 -0.333333333333     6
 0.116666666667 -0.133333333333 -0.333333333333    12
 0.133333333333 -0.166666666667 -0.333333333333    12
 0.150000000000 -0.200000000000 -0.333333333333    12
 0.166666666667 -0.233333333333 -0.333333333333    12
 0.183333333333 -0.266666666667 -0.333333333333    12
 0.200000000000 -0.300000000000 -0.333333333333    12
 0.216666666667 -0.333333333333 -0.333333333333    12
 0.233333333333 -0.366666666667 -0.333333333333    12
 0.250000000000 -0.400000000000 -0.333333333333    12
 0.266666666667 -0.433333333333 -0.333333333333    12
 0.283333333333 -0.466666666667 -0.333333333333    12
 0.300000000000 -0.500000000000 -0.333333333333    12
 0.316666666667 -0.533333333333 -0.333333333333    12
 0.333333333333 -0.566666666667 -0.333333333333    12
-0.550000000000  0.200000000000 -0.333333333333    12
-0.533333333333  0.166666666667 -0.333333333333    12
-0.516666666667  0.133333333333 -0.333333333333    12
-0.500000000000  0.100000000000 -0.333333333333    12
-0.483333333333  0.066666666667 -0.333333333333    12
-0.466666666667  0.033333333333 -0.333333333333    12
-0.450000000000  0.000000000000 -0.333333333333     6
 0.150000000000 -0.150000000000 -0.000000000000     6
 0.166666666667 -0.183333333333  0.000000000000    12
 0.183333333333 -0.216666666667 -0.000000000000    12
 0.200000000000 -0.250000000000  0.000000000000    12
 0.216666666667 -0.283333333333 -0.000000000000    12
 0.233333333333 -0.316666666667 -0.000000000000    12
 0.250000000000 -0.350000000000 -0.000000000000    12
 0.266666666667 -0.383333333333  0.000000000000    12
 0.283333333333 -0.416666666667 -0.000000000000    12
 0.300000000000 -0.450000000000  0.000000000000    12
 0.316666666667 -0.483333333333  0.000000000000    12
 0.333333333333 -0.516666666667  0.000000000000    12
-0.500000000000  0.150000000000 -0.000000000000    12
-0.483333333333  0.116666666667  0.000000000000    12
-0.466666666667  0.083333333333  0.000000000000    12
-0.450000000000  0.050000000000  0.000000000000    12
-0.433333333333  0.016666666667 -0.000000000000    12
 0.150000000000 -0.150000000000  0.333333333333     6
 0.166666666667 -0.183333333333  0.333333333333    12
 0.183333333333 -0.216666666667  0.333333333333    12
 0.200000000000 -0.250000000000  0.333333333333    12
 0.216666666667 -0.283333333333  0.333333333333    12
 0.233333333333 -0.316666666667  0.333333333333    12
 0.250000000000 -0.350000000000  0.333333333333    12
 0.266666666667 -0.383333333333  0.333333333333    12
 0.283333333333 -0.416666666667  0.333333333333    12
 0.300000000000 -0.450000000000  0.333333333333    12
 0.316666666667 -0.483333333333  0.333333333333    12
 0.333333333333 -0.516666666667  0.333333333333    12
-0.500000000000  0.150000000000  0.333333333333    12
-0.483333333333  0.116666666667  0.333333333333    12
-0.466666666667  0.083333333333  0.333333333333    12
-0.450000000000  0.050000000000  0.333333333333    12
-0.433333333333  0.016666666667  0.333333333333    12
 0.150000000000 -0.150000000000 -0.333333333333     6
 0.166666666667 -0.183333333333 -0.333333333333    12
 0.183333333333 -0.216666666667 -0.333333333333    12
 0.200000000000 -0.250000000000 -0.333333333333    12
 0.216666666667 -0.283333333333 -0.333333333333    12
 0.233333333333 -0.316666666667 -0.333333333333    12
 0.250000000000 -0.350000000000 -0.333333333333    12
 0.266666666667 -0.383333333333 -0.333333333333    12
 0.283333333333 -0.416666666667 -0.333333333333    12
 0.300000000000 -0.450000000000 -0.333333333333    12
 0.316666666667 -0.483333333333 -0.333333333333    12
 0.333333333333 -0.516666666667 -0.333333333333    12
-0.500000000000  0.150000000000 -0.333333333333    12
-0.483333333333  0.116666666667 -0.333333333333    12
-0.466666666667  0.083333333333 -0.333333333333    12
-0.450000000000  0.050000000000 -0.333333333333    12
-0.433333333333  0.016666666667 -0.333333333333    12
 0.200000000000 -0.200000000000  0.000000000000     6
 0.216666666667 -0.233333333333 -0.000000000000    12
 0.233333333333 -0.266666666667  0.000000000000    12
 0.250000000000 -0.300000000000 -0.000000000000    12
 0.266666666667 -0.333333333333  0.000000000000    12
 0.283333333333 -0.366666666667  0.000000000000    12
 0.300000000000 -0.400000000000  0.000000000000    12
 0.316666666667 -0.433333333333 -0.000000000000    12
 0.333333333333 -0.466666666667 -0.000000000000    12
-0.450000000000  0.100000000000  0.000000000000    12
-0.433333333333  0.066666666667  0.000000000000    12
-0.416666666667  0.033333333333  0.000000000000    12
-0.400000000000  0.000000000000  0.000000000000     6
 0.200000000000 -0.200000000000  0.333333333333     6
 0.216666666667 -0.233333333333  0.333333333333    12
 0.233333333333 -0.266666666667  0.333333333333    12
 0.250000000000 -0.300000000000  0.333333333333    12
 0.266666666667 -0.333333333333  0.333333333333    12
 0.283333333333 -0.366666666667  0.333333333333    12
 0.300000000000 -0.400000000000  0.333333333333    12
 0.316666666667 -0.433333333333  0.333333333333    12
 0.333333333333 -0.466666666667  0.333333333333    12
-0.450000000000  0.100000000000  0.333333333333    12
-0.433333333333  0.066666666667  0.333333333333    12
-0.416666666667  0.033333333333  0.333333333333    12
-0.400000000000  0.000000000000  0.333333333333     6
 0.200000000000 -0.200000000000 -0.333333333333     6
 0.216666666667 -0.233333333333 -0.333333333333    12
 0.233333333333 -0.266666666667 -0.333333333333    12
 0.250000000000 -0.300000000000 -0.333333333333    12
 0.266666666667 -0.333333333333 -0.333333333333    12
 0.283333333333 -0.366666666667 -0.333333333333    12
 0.300000000000 -0.400000000000 -0.333333333333    12
 0.316666666667 -0.433333333333 -0.333333333333    12
 0.333333333333 -0.466666666667 -0.333333333333    12
-0.450000000000  0.100000000000 -0.333333333333    12
-0.433333333333  0.066666666667 -0.333333333333    12
-0.416666666667  0.033333333333 -0.333333333333    12
-0.400000000000  0.000000000000 -0.333333333333     6
 0.250000000000 -0.250000000000  0.000000000000     6
 0.266666666667 -0.283333333333 -0.000000000000    12
 0.283333333333 -0.316666666667  0.000000000000    12
 0.300000000000 -0.350000000000  0.000000000000    12
 0.316666666667 -0.383333333333  0.000000000000    12
 0.333333333333 -0.416666666667  0.000000000000    12
-0.400000000000  0.050000000000 -0.000000000000    12
-0.383333333333  0.016666666667 -0.000000000000    12
 0.250000000000 -0.250000000000  0.333333333333     6
 0.266666666667 -0.283333333333  0.333333333333    12
 0.283333333333 -0.316666666667  0.333333333333    12
 0.300000000000 -0.350000000000  0.333333333333    12
 0.316666666667 -0.383333333333  0.333333333333    12
 0.333333333333 -0.416666666667  0.333333333333    12
-0.400000000000  0.050000000000  0.333333333333    12
-0.383333333333  0.016666666667  0.333333333333    12
 0.250000000000 -0.250000000000 -0.333333333333     6
 0.266666666667 -0.283333333333 -0.333333333333    12
 0.283333333333 -0.316666666667 -0.333333333333    12
 0.300000000000 -0.350000000000 -0.333333333333    12
 0.316666666667 -0.383333333333 -0.333333333333    12
 0.333333333333 -0.416666666667 -0.333333333333    12
-0.400000000000  0.050000000000 -0.333333333333    12
-0.383333333333  0.016666666667 -0.333333333333    12
 0.300000000000 -0.300000000000 -0.000000000000     6
 0.316666666667 -0.333333333333  0.000000000000    12
 0.333333333333 -0.366666666667  0.000000000000    12
-0.350000000000  0.000000000000  0.000000000000     6
 0.300000000000 -0.300000000000  0.333333333333     6
 0.316666666667 -0.333333333333  0.333333333333    12
 0.333333333333 -0.366666666667  0.333333333333    12
-0.350000000000 -0.000000000000  0.333333333333     6
 0.300000000000 -0.300000000000 -0.333333333333     6
 0.316666666667 -0.333333333333 -0.333333333333    12
 0.333333333333 -0.366666666667 -0.333333333333    12
-0.350000000000 -0.000000000000 -0.333333333333     6
